n = 10;
K = 3;
L = 30;
capacity = array1d(0..2,[5, 5, 5]);
max_r_time = array1d(0..2,[300, 300, 300]);
load = array1d(0..21,[0, 1, 1, 1, 1, 1, 1, 1, 1, 1, 1, -1, -1, -1, -1, -1, -1, -1, -1, -1, -1, 0]);
service_time = array1d(0..21,[0, 5, 5, 5, 5, 5, 5, 5, 5, 5, 5, 5, 5, 5, 5, 5, 5, 5, 5, 5, 5, 0]);
earliest_pickup = array1d(0..21,[0, 139, 41, 276, 180, 37, 401, 479, 33, 277, 121, 139, 41, 276, 180, 37, 401, 479, 33, 277, 121, 0]);
latest_dropoff = array1d(0..21,[1440, 200, 105, 337, 243, 99, 461, 543, 95, 341, 183, 200, 105, 337, 243, 99, 461, 543, 95, 341, 183, 1440]);
t_time = array2d(0..21,0..21,[0, 2, 3, 1, 1, 1, 2, 2, 3, 2, 2, 3, 2, 1, 2, 1, 2, 2, 2, 2, 1, 0, 2, 0, 1, 2, 3, 2, 1, 2, 1, 5, 3, 1, 3, 3, 1, 3, 1, 3, 1, 3, 1, 2, 3, 1, 0, 3, 4, 2, 1, 3, 1, 5, 3, 1, 4, 4, 1, 4, 1, 2, 2, 4, 2, 3, 1, 2, 3, 0, 1, 2, 2, 1, 3, 3, 3, 3, 1, 1, 2, 1, 2, 3, 1, 1, 1, 1, 1, 3, 4, 1, 0, 2, 3, 1, 4, 3, 3, 4, 1, 1, 3, 0, 3, 4, 2, 1, 2, 1, 1, 2, 2, 2, 2, 0, 1, 3, 2, 3, 1, 2, 3, 2, 1, 2, 1, 1, 3, 3, 1, 1, 2, 1, 1, 2, 3, 1, 0, 2, 1, 4, 2, 1, 3, 3, 0, 3, 0, 2, 2, 3, 1, 2, 2, 2, 3, 1, 1, 3, 2, 0, 3, 4, 4, 3, 1, 2, 2, 1, 2, 4, 1, 1, 2, 2, 3, 1, 1, 3, 4, 2, 1, 3, 0, 5, 4, 0, 4, 4, 1, 4, 1, 3, 2, 4, 2, 3, 2, 5, 5, 3, 3, 3, 4, 4, 5, 0, 2, 5, 4, 2, 4, 3, 4, 4, 5, 4, 3, 2, 2, 3, 3, 3, 3, 1, 2, 4, 4, 2, 0, 4, 4, 2, 2, 3, 2, 2, 4, 4, 2, 2, 3, 1, 1, 3, 4, 2, 1, 3, 0, 5, 4, 0, 4, 4, 1, 4, 1, 3, 2, 4, 2, 3, 2, 3, 4, 1, 1, 3, 3, 1, 4, 4, 4, 4, 0, 2, 3, 1, 3, 5, 2, 0, 2, 2, 1, 3, 4, 1, 1, 2, 3, 2, 4, 2, 2, 4, 2, 0, 3, 1, 3, 3, 2, 2, 2, 1, 2, 1, 1, 2, 3, 1, 0, 2, 1, 4, 2, 1, 3, 3, 0, 3, 0, 2, 2, 3, 1, 2, 1, 3, 4, 1, 0, 2, 3, 1, 4, 3, 3, 4, 1, 1, 3, 0, 3, 4, 2, 1, 2, 1, 2, 1, 1, 2, 3, 1, 0, 2, 1, 4, 2, 1, 3, 3, 0, 3, 0, 2, 2, 3, 1, 2, 2, 3, 2, 3, 4, 1, 2, 4, 3, 4, 2, 3, 5, 3, 2, 4, 2, 0, 4, 5, 2, 2, 2, 1, 2, 1, 2, 3, 2, 1, 2, 5, 4, 2, 2, 2, 2, 2, 2, 4, 0, 2, 2, 2, 2, 3, 4, 1, 1, 3, 3, 1, 4, 4, 4, 4, 0, 2, 3, 1, 3, 5, 2, 0, 2, 2, 1, 1, 2, 1, 2, 1, 1, 2, 2, 3, 2, 2, 2, 2, 1, 2, 1, 2, 2, 2, 0, 1, 0, 2, 3, 1, 1, 1, 2, 2, 3, 2, 2, 3, 2, 1, 2, 1, 2, 2, 2, 2, 1, 0]);
t_cost = array3d(0..21,0..21,0..2,[0, 121, 182, 60, 60, 60, 121, 121, 182, 121, 121, 182, 121, 60, 121, 60, 121, 121, 121, 121, 60, 0, 121, 0, 60, 121, 182, 121, 60, 121, 60, 304, 182, 60, 182, 182, 60, 182, 60, 182, 60, 182, 60, 121, 182, 60, 0, 182, 243, 121, 60, 182, 60, 304, 182, 60, 243, 243, 60, 243, 60, 121, 121, 243, 121, 182, 60, 121, 182, 0, 60, 121, 121, 60, 182, 182, 182, 182, 60, 60, 121, 60, 121, 182, 60, 60, 60, 60, 60, 182, 243, 60, 0, 121, 182, 60, 243, 182, 182, 243, 60, 60, 182, 0, 182, 243, 121, 60, 121, 60, 60, 121, 121, 121, 121, 0, 60, 182, 121, 182, 60, 121, 182, 121, 60, 121, 60, 60, 182, 182, 60, 60, 121, 60, 60, 121, 182, 60, 0, 121, 60, 243, 121, 60, 182, 182, 0, 182, 0, 121, 121, 182, 60, 121, 121, 121, 182, 60, 60, 182, 121, 0, 182, 243, 243, 182, 60, 121, 121, 60, 121, 243, 60, 60, 121, 121, 182, 60, 60, 182, 243, 121, 60, 182, 0, 304, 243, 0, 243, 243, 60, 243, 60, 182, 121, 243, 121, 182, 121, 304, 304, 182, 182, 182, 243, 243, 304, 0, 121, 304, 243, 121, 243, 182, 243, 243, 304, 243, 182, 121, 121, 182, 182, 182, 182, 60, 121, 243, 243, 121, 0, 243, 243, 121, 121, 182, 121, 121, 243, 243, 121, 121, 182, 60, 60, 182, 243, 121, 60, 182, 0, 304, 243, 0, 243, 243, 60, 243, 60, 182, 121, 243, 121, 182, 121, 182, 243, 60, 60, 182, 182, 60, 243, 243, 243, 243, 0, 121, 182, 60, 182, 304, 121, 0, 121, 121, 60, 182, 243, 60, 60, 121, 182, 121, 243, 121, 121, 243, 121, 0, 182, 60, 182, 182, 121, 121, 121, 60, 121, 60, 60, 121, 182, 60, 0, 121, 60, 243, 121, 60, 182, 182, 0, 182, 0, 121, 121, 182, 60, 121, 60, 182, 243, 60, 0, 121, 182, 60, 243, 182, 182, 243, 60, 60, 182, 0, 182, 243, 121, 60, 121, 60, 121, 60, 60, 121, 182, 60, 0, 121, 60, 243, 121, 60, 182, 182, 0, 182, 0, 121, 121, 182, 60, 121, 121, 182, 121, 182, 243, 60, 121, 243, 182, 243, 121, 182, 304, 182, 121, 243, 121, 0, 243, 304, 121, 121, 121, 60, 121, 60, 121, 182, 121, 60, 121, 304, 243, 121, 121, 121, 121, 121, 121, 243, 0, 121, 121, 121, 121, 182, 243, 60, 60, 182, 182, 60, 243, 243, 243, 243, 0, 121, 182, 60, 182, 304, 121, 0, 121, 121, 60, 60, 121, 60, 121, 60, 60, 121, 121, 182, 121, 121, 121, 121, 60, 121, 60, 121, 121, 121, 0, 60, 0, 121, 182, 60, 60, 60, 121, 121, 182, 121, 121, 182, 121, 60, 121, 60, 121, 121, 121, 121, 60, 0, 0, 121, 182, 60, 60, 60, 121, 121, 182, 121, 121, 182, 121, 60, 121, 60, 121, 121, 121, 121, 60, 0, 121, 0, 60, 121, 182, 121, 60, 121, 60, 304, 182, 60, 182, 182, 60, 182, 60, 182, 60, 182, 60, 121, 182, 60, 0, 182, 243, 121, 60, 182, 60, 304, 182, 60, 243, 243, 60, 243, 60, 121, 121, 243, 121, 182, 60, 121, 182, 0, 60, 121, 121, 60, 182, 182, 182, 182, 60, 60, 121, 60, 121, 182, 60, 60, 60, 60, 60, 182, 243, 60, 0, 121, 182, 60, 243, 182, 182, 243, 60, 60, 182, 0, 182, 243, 121, 60, 121, 60, 60, 121, 121, 121, 121, 0, 60, 182, 121, 182, 60, 121, 182, 121, 60, 121, 60, 60, 182, 182, 60, 60, 121, 60, 60, 121, 182, 60, 0, 121, 60, 243, 121, 60, 182, 182, 0, 182, 0, 121, 121, 182, 60, 121, 121, 121, 182, 60, 60, 182, 121, 0, 182, 243, 243, 182, 60, 121, 121, 60, 121, 243, 60, 60, 121, 121, 182, 60, 60, 182, 243, 121, 60, 182, 0, 304, 243, 0, 243, 243, 60, 243, 60, 182, 121, 243, 121, 182, 121, 304, 304, 182, 182, 182, 243, 243, 304, 0, 121, 304, 243, 121, 243, 182, 243, 243, 304, 243, 182, 121, 121, 182, 182, 182, 182, 60, 121, 243, 243, 121, 0, 243, 243, 121, 121, 182, 121, 121, 243, 243, 121, 121, 182, 60, 60, 182, 243, 121, 60, 182, 0, 304, 243, 0, 243, 243, 60, 243, 60, 182, 121, 243, 121, 182, 121, 182, 243, 60, 60, 182, 182, 60, 243, 243, 243, 243, 0, 121, 182, 60, 182, 304, 121, 0, 121, 121, 60, 182, 243, 60, 60, 121, 182, 121, 243, 121, 121, 243, 121, 0, 182, 60, 182, 182, 121, 121, 121, 60, 121, 60, 60, 121, 182, 60, 0, 121, 60, 243, 121, 60, 182, 182, 0, 182, 0, 121, 121, 182, 60, 121, 60, 182, 243, 60, 0, 121, 182, 60, 243, 182, 182, 243, 60, 60, 182, 0, 182, 243, 121, 60, 121, 60, 121, 60, 60, 121, 182, 60, 0, 121, 60, 243, 121, 60, 182, 182, 0, 182, 0, 121, 121, 182, 60, 121, 121, 182, 121, 182, 243, 60, 121, 243, 182, 243, 121, 182, 304, 182, 121, 243, 121, 0, 243, 304, 121, 121, 121, 60, 121, 60, 121, 182, 121, 60, 121, 304, 243, 121, 121, 121, 121, 121, 121, 243, 0, 121, 121, 121, 121, 182, 243, 60, 60, 182, 182, 60, 243, 243, 243, 243, 0, 121, 182, 60, 182, 304, 121, 0, 121, 121, 60, 60, 121, 60, 121, 60, 60, 121, 121, 182, 121, 121, 121, 121, 60, 121, 60, 121, 121, 121, 0, 60, 0, 121, 182, 60, 60, 60, 121, 121, 182, 121, 121, 182, 121, 60, 121, 60, 121, 121, 121, 121, 60, 0, 0, 121, 182, 60, 60, 60, 121, 121, 182, 121, 121, 182, 121, 60, 121, 60, 121, 121, 121, 121, 60, 0, 121, 0, 60, 121, 182, 121, 60, 121, 60, 304, 182, 60, 182, 182, 60, 182, 60, 182, 60, 182, 60, 121, 182, 60, 0, 182, 243, 121, 60, 182, 60, 304, 182, 60, 243, 243, 60, 243, 60, 121, 121, 243, 121, 182, 60, 121, 182, 0, 60, 121, 121, 60, 182, 182, 182, 182, 60, 60, 121, 60, 121, 182, 60, 60, 60, 60, 60, 182, 243, 60, 0, 121, 182, 60, 243, 182, 182, 243, 60, 60, 182, 0, 182, 243, 121, 60, 121, 60, 60, 121, 121, 121, 121, 0, 60, 182, 121, 182, 60, 121, 182, 121, 60, 121, 60, 60, 182, 182, 60, 60, 121, 60, 60, 121, 182, 60, 0, 121, 60, 243, 121, 60, 182, 182, 0, 182, 0, 121, 121, 182, 60, 121, 121, 121, 182, 60, 60, 182, 121, 0, 182, 243, 243, 182, 60, 121, 121, 60, 121, 243, 60, 60, 121, 121, 182, 60, 60, 182, 243, 121, 60, 182, 0, 304, 243, 0, 243, 243, 60, 243, 60, 182, 121, 243, 121, 182, 121, 304, 304, 182, 182, 182, 243, 243, 304, 0, 121, 304, 243, 121, 243, 182, 243, 243, 304, 243, 182, 121, 121, 182, 182, 182, 182, 60, 121, 243, 243, 121, 0, 243, 243, 121, 121, 182, 121, 121, 243, 243, 121, 121, 182, 60, 60, 182, 243, 121, 60, 182, 0, 304, 243, 0, 243, 243, 60, 243, 60, 182, 121, 243, 121, 182, 121, 182, 243, 60, 60, 182, 182, 60, 243, 243, 243, 243, 0, 121, 182, 60, 182, 304, 121, 0, 121, 121, 60, 182, 243, 60, 60, 121, 182, 121, 243, 121, 121, 243, 121, 0, 182, 60, 182, 182, 121, 121, 121, 60, 121, 60, 60, 121, 182, 60, 0, 121, 60, 243, 121, 60, 182, 182, 0, 182, 0, 121, 121, 182, 60, 121, 60, 182, 243, 60, 0, 121, 182, 60, 243, 182, 182, 243, 60, 60, 182, 0, 182, 243, 121, 60, 121, 60, 121, 60, 60, 121, 182, 60, 0, 121, 60, 243, 121, 60, 182, 182, 0, 182, 0, 121, 121, 182, 60, 121, 121, 182, 121, 182, 243, 60, 121, 243, 182, 243, 121, 182, 304, 182, 121, 243, 121, 0, 243, 304, 121, 121, 121, 60, 121, 60, 121, 182, 121, 60, 121, 304, 243, 121, 121, 121, 121, 121, 121, 243, 0, 121, 121, 121, 121, 182, 243, 60, 60, 182, 182, 60, 243, 243, 243, 243, 0, 121, 182, 60, 182, 304, 121, 0, 121, 121, 60, 60, 121, 60, 121, 60, 60, 121, 121, 182, 121, 121, 121, 121, 60, 121, 60, 121, 121, 121, 0, 60, 0, 121, 182, 60, 60, 60, 121, 121, 182, 121, 121, 182, 121, 60, 121, 60, 121, 121, 121, 121, 60, 0]);
t_emission = array3d(0..21,0..21,0..2,[0, 276, 414, 138, 138, 138, 276, 276, 414, 276, 276, 414, 276, 138, 276, 138, 276, 276, 276, 276, 138, 0, 276, 0, 138, 276, 414, 276, 138, 276, 138, 690, 414, 138, 414, 414, 138, 414, 138, 414, 138, 414, 138, 276, 414, 138, 0, 414, 552, 276, 138, 414, 138, 690, 414, 138, 552, 552, 138, 552, 138, 276, 276, 552, 276, 414, 138, 276, 414, 0, 138, 276, 276, 138, 414, 414, 414, 414, 138, 138, 276, 138, 276, 414, 138, 138, 138, 138, 138, 414, 552, 138, 0, 276, 414, 138, 552, 414, 414, 552, 138, 138, 414, 0, 414, 552, 276, 138, 276, 138, 138, 276, 276, 276, 276, 0, 138, 414, 276, 414, 138, 276, 414, 276, 138, 276, 138, 138, 414, 414, 138, 138, 276, 138, 138, 276, 414, 138, 0, 276, 138, 552, 276, 138, 414, 414, 0, 414, 0, 276, 276, 414, 138, 276, 276, 276, 414, 138, 138, 414, 276, 0, 414, 552, 552, 414, 138, 276, 276, 138, 276, 552, 138, 138, 276, 276, 414, 138, 138, 414, 552, 276, 138, 414, 0, 690, 552, 0, 552, 552, 138, 552, 138, 414, 276, 552, 276, 414, 276, 690, 690, 414, 414, 414, 552, 552, 690, 0, 276, 690, 552, 276, 552, 414, 552, 552, 690, 552, 414, 276, 276, 414, 414, 414, 414, 138, 276, 552, 552, 276, 0, 552, 552, 276, 276, 414, 276, 276, 552, 552, 276, 276, 414, 138, 138, 414, 552, 276, 138, 414, 0, 690, 552, 0, 552, 552, 138, 552, 138, 414, 276, 552, 276, 414, 276, 414, 552, 138, 138, 414, 414, 138, 552, 552, 552, 552, 0, 276, 414, 138, 414, 690, 276, 0, 276, 276, 138, 414, 552, 138, 138, 276, 414, 276, 552, 276, 276, 552, 276, 0, 414, 138, 414, 414, 276, 276, 276, 138, 276, 138, 138, 276, 414, 138, 0, 276, 138, 552, 276, 138, 414, 414, 0, 414, 0, 276, 276, 414, 138, 276, 138, 414, 552, 138, 0, 276, 414, 138, 552, 414, 414, 552, 138, 138, 414, 0, 414, 552, 276, 138, 276, 138, 276, 138, 138, 276, 414, 138, 0, 276, 138, 552, 276, 138, 414, 414, 0, 414, 0, 276, 276, 414, 138, 276, 276, 414, 276, 414, 552, 138, 276, 552, 414, 552, 276, 414, 690, 414, 276, 552, 276, 0, 552, 690, 276, 276, 276, 138, 276, 138, 276, 414, 276, 138, 276, 690, 552, 276, 276, 276, 276, 276, 276, 552, 0, 276, 276, 276, 276, 414, 552, 138, 138, 414, 414, 138, 552, 552, 552, 552, 0, 276, 414, 138, 414, 690, 276, 0, 276, 276, 138, 138, 276, 138, 276, 138, 138, 276, 276, 414, 276, 276, 276, 276, 138, 276, 138, 276, 276, 276, 0, 138, 0, 276, 414, 138, 138, 138, 276, 276, 414, 276, 276, 414, 276, 138, 276, 138, 276, 276, 276, 276, 138, 0, 0, 276, 414, 138, 138, 138, 276, 276, 414, 276, 276, 414, 276, 138, 276, 138, 276, 276, 276, 276, 138, 0, 276, 0, 138, 276, 414, 276, 138, 276, 138, 690, 414, 138, 414, 414, 138, 414, 138, 414, 138, 414, 138, 276, 414, 138, 0, 414, 552, 276, 138, 414, 138, 690, 414, 138, 552, 552, 138, 552, 138, 276, 276, 552, 276, 414, 138, 276, 414, 0, 138, 276, 276, 138, 414, 414, 414, 414, 138, 138, 276, 138, 276, 414, 138, 138, 138, 138, 138, 414, 552, 138, 0, 276, 414, 138, 552, 414, 414, 552, 138, 138, 414, 0, 414, 552, 276, 138, 276, 138, 138, 276, 276, 276, 276, 0, 138, 414, 276, 414, 138, 276, 414, 276, 138, 276, 138, 138, 414, 414, 138, 138, 276, 138, 138, 276, 414, 138, 0, 276, 138, 552, 276, 138, 414, 414, 0, 414, 0, 276, 276, 414, 138, 276, 276, 276, 414, 138, 138, 414, 276, 0, 414, 552, 552, 414, 138, 276, 276, 138, 276, 552, 138, 138, 276, 276, 414, 138, 138, 414, 552, 276, 138, 414, 0, 690, 552, 0, 552, 552, 138, 552, 138, 414, 276, 552, 276, 414, 276, 690, 690, 414, 414, 414, 552, 552, 690, 0, 276, 690, 552, 276, 552, 414, 552, 552, 690, 552, 414, 276, 276, 414, 414, 414, 414, 138, 276, 552, 552, 276, 0, 552, 552, 276, 276, 414, 276, 276, 552, 552, 276, 276, 414, 138, 138, 414, 552, 276, 138, 414, 0, 690, 552, 0, 552, 552, 138, 552, 138, 414, 276, 552, 276, 414, 276, 414, 552, 138, 138, 414, 414, 138, 552, 552, 552, 552, 0, 276, 414, 138, 414, 690, 276, 0, 276, 276, 138, 414, 552, 138, 138, 276, 414, 276, 552, 276, 276, 552, 276, 0, 414, 138, 414, 414, 276, 276, 276, 138, 276, 138, 138, 276, 414, 138, 0, 276, 138, 552, 276, 138, 414, 414, 0, 414, 0, 276, 276, 414, 138, 276, 138, 414, 552, 138, 0, 276, 414, 138, 552, 414, 414, 552, 138, 138, 414, 0, 414, 552, 276, 138, 276, 138, 276, 138, 138, 276, 414, 138, 0, 276, 138, 552, 276, 138, 414, 414, 0, 414, 0, 276, 276, 414, 138, 276, 276, 414, 276, 414, 552, 138, 276, 552, 414, 552, 276, 414, 690, 414, 276, 552, 276, 0, 552, 690, 276, 276, 276, 138, 276, 138, 276, 414, 276, 138, 276, 690, 552, 276, 276, 276, 276, 276, 276, 552, 0, 276, 276, 276, 276, 414, 552, 138, 138, 414, 414, 138, 552, 552, 552, 552, 0, 276, 414, 138, 414, 690, 276, 0, 276, 276, 138, 138, 276, 138, 276, 138, 138, 276, 276, 414, 276, 276, 276, 276, 138, 276, 138, 276, 276, 276, 0, 138, 0, 276, 414, 138, 138, 138, 276, 276, 414, 276, 276, 414, 276, 138, 276, 138, 276, 276, 276, 276, 138, 0, 0, 276, 414, 138, 138, 138, 276, 276, 414, 276, 276, 414, 276, 138, 276, 138, 276, 276, 276, 276, 138, 0, 276, 0, 138, 276, 414, 276, 138, 276, 138, 690, 414, 138, 414, 414, 138, 414, 138, 414, 138, 414, 138, 276, 414, 138, 0, 414, 552, 276, 138, 414, 138, 690, 414, 138, 552, 552, 138, 552, 138, 276, 276, 552, 276, 414, 138, 276, 414, 0, 138, 276, 276, 138, 414, 414, 414, 414, 138, 138, 276, 138, 276, 414, 138, 138, 138, 138, 138, 414, 552, 138, 0, 276, 414, 138, 552, 414, 414, 552, 138, 138, 414, 0, 414, 552, 276, 138, 276, 138, 138, 276, 276, 276, 276, 0, 138, 414, 276, 414, 138, 276, 414, 276, 138, 276, 138, 138, 414, 414, 138, 138, 276, 138, 138, 276, 414, 138, 0, 276, 138, 552, 276, 138, 414, 414, 0, 414, 0, 276, 276, 414, 138, 276, 276, 276, 414, 138, 138, 414, 276, 0, 414, 552, 552, 414, 138, 276, 276, 138, 276, 552, 138, 138, 276, 276, 414, 138, 138, 414, 552, 276, 138, 414, 0, 690, 552, 0, 552, 552, 138, 552, 138, 414, 276, 552, 276, 414, 276, 690, 690, 414, 414, 414, 552, 552, 690, 0, 276, 690, 552, 276, 552, 414, 552, 552, 690, 552, 414, 276, 276, 414, 414, 414, 414, 138, 276, 552, 552, 276, 0, 552, 552, 276, 276, 414, 276, 276, 552, 552, 276, 276, 414, 138, 138, 414, 552, 276, 138, 414, 0, 690, 552, 0, 552, 552, 138, 552, 138, 414, 276, 552, 276, 414, 276, 414, 552, 138, 138, 414, 414, 138, 552, 552, 552, 552, 0, 276, 414, 138, 414, 690, 276, 0, 276, 276, 138, 414, 552, 138, 138, 276, 414, 276, 552, 276, 276, 552, 276, 0, 414, 138, 414, 414, 276, 276, 276, 138, 276, 138, 138, 276, 414, 138, 0, 276, 138, 552, 276, 138, 414, 414, 0, 414, 0, 276, 276, 414, 138, 276, 138, 414, 552, 138, 0, 276, 414, 138, 552, 414, 414, 552, 138, 138, 414, 0, 414, 552, 276, 138, 276, 138, 276, 138, 138, 276, 414, 138, 0, 276, 138, 552, 276, 138, 414, 414, 0, 414, 0, 276, 276, 414, 138, 276, 276, 414, 276, 414, 552, 138, 276, 552, 414, 552, 276, 414, 690, 414, 276, 552, 276, 0, 552, 690, 276, 276, 276, 138, 276, 138, 276, 414, 276, 138, 276, 690, 552, 276, 276, 276, 276, 276, 276, 552, 0, 276, 276, 276, 276, 414, 552, 138, 138, 414, 414, 138, 552, 552, 552, 552, 0, 276, 414, 138, 414, 690, 276, 0, 276, 276, 138, 138, 276, 138, 276, 138, 138, 276, 276, 414, 276, 276, 276, 276, 138, 276, 138, 276, 276, 276, 0, 138, 0, 276, 414, 138, 138, 138, 276, 276, 414, 276, 276, 414, 276, 138, 276, 138, 276, 276, 276, 276, 138, 0]);
